Problem:    MinisteHacienda
Rows:       33
Columns:    16 (16 integer, 0 binary)
Non-zeros:  192
Status:     INTEGER OPTIMAL
Objective:  Z = 4850 (MINimum)

   No.   Row name        Activity     Lower bound   Upper bound
------ ------------    ------------- ------------- -------------
     1 Z                        4850                             
     2 cuposLimiteProgramas[1]
                                   0                          12 
     3 cuposLimiteProgramas[2]
                                   3                          10 
     4 cuposLimiteProgramas[3]
                                   7                          20 
     5 cuposLimiteProgramas[4]
                                   6                          18 
     6 demandaMinimaDepartamentoporTema[1,1]
                                 105            80               
     7 demandaMinimaDepartamentoporTema[1,2]
                                 150           150               
     8 demandaMinimaDepartamentoporTema[1,3]
                                 145           100               
     9 demandaMinimaDepartamentoporTema[2,1]
                                  60            60               
    10 demandaMinimaDepartamentoporTema[2,2]
                                 120            90               
    11 demandaMinimaDepartamentoporTema[2,3]
                                 220           150               
    12 demandaMinimaDepartamentoporTema[3,1]
                                 165           150               
    13 demandaMinimaDepartamentoporTema[3,2]
                                  90            70               
    14 demandaMinimaDepartamentoporTema[3,3]
                                 145           130               
    15 demandaMinimaDepartamentoporTema[4,1]
                                 120           120               
    16 demandaMinimaDepartamentoporTema[4,2]
                                 160           160               
    17 demandaMinimaDepartamentoporTema[4,3]
                                 120           110               
    18 empleadosDisponiblesporDepartamento[1]
                                   4                          50 
    19 empleadosDisponiblesporDepartamento[2]
                                   4                          50 
    20 empleadosDisponiblesporDepartamento[3]
                                   4                          50 
    21 empleadosDisponiblesporDepartamento[4]
                                   4                          50 
    22 proporcionEmpleadosInscritosporDepartamento[1,2]
                                   0            -0             = 
    23 proporcionEmpleadosInscritosporDepartamento[1,3]
                                   0            -0             = 
    24 proporcionEmpleadosInscritosporDepartamento[1,4]
                                   0            -0             = 
    25 proporcionEmpleadosInscritosporDepartamento[2,1]
                                   0            -0             = 
    26 proporcionEmpleadosInscritosporDepartamento[2,3]
                                   0            -0             = 
    27 proporcionEmpleadosInscritosporDepartamento[2,4]
                                   0            -0             = 
    28 proporcionEmpleadosInscritosporDepartamento[3,1]
                                   0            -0             = 
    29 proporcionEmpleadosInscritosporDepartamento[3,2]
                                   0            -0             = 
    30 proporcionEmpleadosInscritosporDepartamento[3,4]
                                   0            -0             = 
    31 proporcionEmpleadosInscritosporDepartamento[4,1]
                                   0            -0             = 
    32 proporcionEmpleadosInscritosporDepartamento[4,2]
                                   0            -0             = 
    33 proporcionEmpleadosInscritosporDepartamento[4,3]
                                   0            -0             = 

   No. Column name       Activity     Lower bound   Upper bound
------ ------------    ------------- ------------- -------------
     1 X[1,1]       *              0             0               
     2 X[1,2]       *              0             0               
     3 X[1,3]       *              0             0               
     4 X[1,4]       *              0             0               
     5 X[2,1]       *              0             0               
     6 X[2,2]       *              0             0               
     7 X[2,3]       *              3             0               
     8 X[2,4]       *              0             0               
     9 X[3,1]       *              3             0               
    10 X[3,2]       *              0             0               
    11 X[3,3]       *              0             0               
    12 X[3,4]       *              4             0               
    13 X[4,1]       *              1             0               
    14 X[4,2]       *              4             0               
    15 X[4,3]       *              1             0               
    16 X[4,4]       *              0             0               

Integer feasibility conditions:

KKT.PE: max.abs.err = 0.00e+00 on row 0
        max.rel.err = 0.00e+00 on row 0
        High quality

KKT.PB: max.abs.err = 3.47e-18 on row 24
        max.rel.err = 3.47e-18 on row 24
        High quality

End of output
